17,1,14,1,10,1,18,1,3,2,1,2,12,1,10,2,19,2,18,3,16,4,4,2,19,4,7,5,10,4,20,4,5,4,15,5,5,5;9,1,6,1,7,2,13,2,8,3,16,2,2,1,1,3,17,3,14,3,6,3,11,3,10,3,12,4,15,4,18,4,2,3,16,5,9,5,10,5;11,1,8,1,5,1,9,2,9,3,20,2,8,4,12,2,7,3,16,3,14,4,19,3,17,5,3,4,20,3,2,2,11,4,1,5,18,5,8,5;20,1,13,1,3,1,8,2,1,1,17,2,6,2,18,2,5,2,4,1,3,3,15,3,13,3,4,3,12,5,4,4,14,5,9,4,2,4,20,5;7,1,16,1,11,2,19,1,14,2,15,1,15,2,5,3,12,3,17,4,1,4,6,4,7,4,6,5,3,5,13,4,11,5,13,5,4,5,19,5,2,5;
